p cnf 85 80
c Tipo 0: 
32 -32 0
-32 32 0
c Tipo 0: 
1 -11 0
-1 11 0
c Tipo 0: 
38 -38 0
-38 38 0
c Tipo 0: 
6 -16 0
-6 16 0
c Tipo 0: 
44 -44 0
-44 44 0
c Tipo 0: 
11 -21 0
-11 21 0
c Tipo 0: 
50 -50 0
-50 50 0
c Tipo 0: 
16 -26 0
-16 26 0
c Tipo 0: 
56 -56 0
-56 56 0
c Tipo 0: 
33 -33 0
-33 33 0
c Tipo 0: 
2 -12 0
-2 12 0
c Tipo 0: 
39 -39 0
-39 39 0
c Tipo 0: 
7 -17 0
-7 17 0
c Tipo 0: 
45 -45 0
-45 45 0
c Tipo 0: 
12 -22 0
-12 22 0
c Tipo 0: 
51 -51 0
-51 51 0
c Tipo 0: 
17 -27 0
-17 27 0
c Tipo 0: 
57 -57 0
-57 57 0
c Tipo 0: 
34 -34 0
-34 34 0
c Tipo 0: 
3 -13 0
-3 13 0
c Tipo 0: 
40 -40 0
-40 40 0
c Tipo 0: 
8 -18 0
-8 18 0
c Tipo 0: 
46 -46 0
-46 46 0
c Tipo 0: 
13 -23 0
-13 23 0
c Tipo 0: 
52 -52 0
-52 52 0
c Tipo 0: 
18 -28 0
-18 28 0
c Tipo 0: 
58 -58 0
-58 58 0
c Tipo 0: 
35 -35 0
-35 35 0
c Tipo 0: 
4 -14 0
-4 14 0
c Tipo 0: 
41 -41 0
-41 41 0
c Tipo 0: 
9 -19 0
-9 19 0
c Tipo 0: 
47 -47 0
-47 47 0
c Tipo 0: 
14 -24 0
-14 24 0
c Tipo 0: 
53 -53 0
-53 53 0
c Tipo 0: 
19 -29 0
-19 29 0
c Tipo 0: 
59 -59 0
-59 59 0
c Tipo 0: 
5 -15 0
-5 15 0
c Tipo 0: 
10 -20 0
-10 20 0
c Tipo 0: 
15 -25 0
-15 25 0
c Tipo 0: 
20 -30 0
-20 30 0

